127 131903
1 16 40 42 123 95 93 127 107 111 112 94 46 49 118 48 53 47 45 103 44 54 57 121 56 124 66 55 52 5 50 51 37 36 41 14 30 27 31 12 15 105 114 11 9 24 23 4 20 6 106 108 22 21 17 72 8 19 18 77 79 80 78 117 81 126 82 83 84 76 75 69 70 109 96 119 63 102 101 98 97 28 122 29 32 33 25 26 38 39 34 43 35 2 115 13 120 10 100 58 64 113 65 99 92 89 125 104 87 88 86 85 110 71 68 74 73 67 59 62 61 91 60 116 90 3 7 
